10  5
 4  8  0 10  2 13  1  8  3  4   9 147  10
 4 10  1  8  2 14  3  5  0  7   5 148  10
 3 11  0  5  2 13  1 10  4  8   9 159  10
 1  9  4  7  2 15  3  8  0 11   2 156  10
 0  3  1  6  2 11  4  7  3  8  10 162   5
 3  8  1 11  2 10  0  9  4  7   7 160  10
 3  3  0  3  2 12  4 10  1  9   0 149  10
 0  7  4 11  2 12  3 11  1  4   4 152  10
 4  5  0  7  2 10  1 10  3 10   6 149   5
 1  7  3  5  2 13  4  3  0  8  11 156  10
